data;

set BATIMENTS := 
ALPHA
C1
C2
C3
C4
C5; 

param distance: ALPHA C1 C2 C3 C4 C5:=
ALPHA 0 1 1 10 12 12
C1    1 0 1 8 10 11
C2    1 1 0 8 11 10
C3    10 8 8 0 1 1
C4    12 10 11 1 0 1
C5    12 11 10 1 1 0;

end;

